(set-logic HORN)
(set-info :source |
    Benchmark: C_VC
    Output by Princess (http://www.philipp.ruemmer.org/princess.shtml)
|)
(set-info :status unsat)
;===============================================================================
; Encoding of Heap sorts and operations
;-------------------------------------------------------------------------------
(define-sort Addr() Int)
(declare-datatypes ((AddrRange 0))
                   (((AddrRange (AddrRangeStart Addr) (AddrRangeSize Int)))))

(declare-datatypes ((HeapObject 0) (node 0))
                   (((O_Int (getInt Int)) (O_UInt (getUInt Int)) (O_Addr (getAddr Addr)) (O_node (getnode node)) (defObj))
                   ((node (h Int) (n Addr)))))
(declare-datatypes ((BatchAllocResHeap 0) (AllocResHeap 0) (Heap 0))
                   (((BatchAllocResHeap   (newBatchHeap Heap) (newAddrRange AddrRange)))
                   ((AllocResHeap   (newHeap Heap) (newAddr Addr)))
                    ((HeapCtor (HeapSize Int)
                               (HeapContents (Array Addr HeapObject))))))
(define-fun nullAddr  () Addr 0)
(define-fun validHeap     ((h Heap) (p Addr)) Bool
  (and (>= (HeapSize h) p) (> p 0)))
(define-fun emptyHeap () Heap (
  HeapCtor 0 (( as const (Array Addr HeapObject)) defObj)))
(define-fun readHeap ((h Heap) (p Addr)) HeapObject
  (ite (validHeap h p)
       (select (HeapContents h) p)
       defObj))
(define-fun writeHeap ((h Heap) (p Addr) (o HeapObject)) Heap
  (ite (validHeap h p)
       (HeapCtor (HeapSize h) (store (HeapContents h) p o))
       h))
(define-fun allocHeap   ((h Heap) (o HeapObject)) AllocResHeap
  (AllocResHeap (HeapCtor (+ 1 (HeapSize h))
                    (store (HeapContents h) (+ 1 (HeapSize h)) o))
          (+ 1 (HeapSize h))))
(define-fun Heap-eq     ((h1 Heap) (h2 Heap)) Bool
  (forall ((p Addr))
          (and (= (validHeap h1 p) (validHeap h2 p))
               (= (readHeap h1 p) (readHeap h2 p)))))
(define-fun nthAddrRange((ar AddrRange) (n Int)) Addr
  (ite (and (>= n 0) (< n (AddrRangeSize ar)))
       (+ (AddrRangeStart ar) n)
       nullAddr))
(define-fun withinHeap ((ar AddrRange ) (p Addr)) Bool
  (and (>= p (AddrRangeStart ar)) (< p (+ (AddrRangeStart ar) (AddrRangeSize ar)))))

(declare-fun batchAllocHeap     (Heap Heap HeapObject Int Int) Bool)
(declare-fun batchAllocPostHeap (Heap Heap HeapObject Int) Bool)

(assert (forall ((h1 Heap) (h2 Heap) (o HeapObject) (n1 Int) (n2 Int))
                (=> (and (> n2 0) (batchAllocHeap h1 h2 o n1 n2))
                   (batchAllocHeap h1 (newHeap (allocHeap h2 o)) o n1 (- n2 1)))))
(assert (forall ((h1 Heap) (h2 Heap) (o HeapObject) (n1 Int) (n2 Int))
                (=> (and (<= n2 0) (batchAllocHeap h1 h2 o n1 n2))
                   (batchAllocPostHeap h1 h2 o n1))))

(declare-fun batchWriteHeap     (Heap Heap Addr Addr HeapObject Int Int) Bool)
(declare-fun batchWritePostHeap (Heap Heap Addr HeapObject Int) Bool)

(assert (forall ((h1 Heap) (h2 Heap) (a1 Addr) (a2 Addr) (o HeapObject) (n1 Int) (n2 Int))
                (=> (and (> n2 0) (batchWriteHeap h1 h2 a1 a2 o n1 n2))
                   (batchWriteHeap h1 (writeHeap h2 a2 o) a1 (+ a2 1) o n1 (- n2 1)))))
(assert (forall ((h1 Heap) (h2 Heap) (a1 Addr) (a2 Addr) (o HeapObject) (n1 Int) (n2 Int))
                (=> (and (<= n2 0) (batchWriteHeap h1 h2 a1 a2 o n1 n2))
                   (batchWritePostHeap h1 h2 a1 o n1))))

;===============================================================================
(declare-fun inv_main13 (Heap Int Int Addr Addr Addr) Bool)
(declare-fun inv_main14 (Heap Int Int Addr Addr Addr) Bool)
(declare-fun inv_main18 (Heap Int Int Addr Addr Addr) Bool)
(declare-fun inv_main22 (Heap Int Int Addr Addr Addr) Bool)
(declare-fun inv_main25 (Heap Int Int Addr Addr Addr Int) Bool)
(declare-fun inv_main28 (Heap Int Int Addr Addr Addr) Bool)
(declare-fun inv_main30 (Heap Int Int Addr Addr Addr) Bool)
(declare-fun inv_main34 (Heap Int Int Addr Addr Addr) Bool)
(declare-fun inv_main38 (Heap Int Int Addr Addr Addr) Bool)
(declare-fun inv_main4 (Heap Int Int) Bool)
(declare-fun inv_main41 (Heap Int Int Addr Addr Addr Int) Bool)
(declare-fun inv_main44 (Heap Int Int Addr Addr Addr) Bool)
(declare-fun inv_main46 (Heap Int Int Addr Addr Addr) Bool)
(declare-fun inv_main50 (Heap Int Int Addr Addr Addr) Bool)
(declare-fun inv_main51 (Heap Int Int Addr Addr Addr) Bool)
(declare-fun inv_main54 (Heap Int Int Addr Addr Addr) Bool)
(declare-fun inv_main56 (Heap Int Int Addr Addr Addr) Bool)
(declare-fun inv_main59 (Heap Int Int Addr Addr Addr) Bool)
(declare-fun inv_main62 (Heap Int Int Addr Addr Addr) Bool)
(declare-fun inv_main66 (Heap Int Int Addr Addr Addr) Bool)
(declare-fun inv_main68 (Heap Int Int Addr Addr Addr) Bool)
(declare-fun inv_main9 (Heap Int Int Addr Int) Bool)
(assert (forall ((var0 Heap)) (or (not (= var0 emptyHeap)) (inv_main4 var0 0 0))))
(assert (forall ((var0 Addr) (var1 Addr) (var2 Addr) (var3 Heap) (var4 Int) (var5 Int) (var6 Int) (var7 Addr) (var8 Addr) (var9 Addr) (var10 Int) (var11 Int) (var12 Heap)) (or (not (and (and (and (and (and (and (and (and (and (inv_main56 var12 var11 var10 var9 var8 var7) (= var6 (h (getnode (readHeap var12 var7))))) (= var0 var7)) (= var1 var8)) (= var2 var9)) (= var4 var10)) (= var5 var11)) (= var3 var12)) (is-O_node (readHeap var12 var7))) (or (not (= var6 3)) (<= 0 (+ (+ (* (- 1) (+ var5 var4)) 20) (* (- 1) 1)))))) (inv_main62 var3 var5 var4 var2 var1 var0))))
(assert (forall ((var0 Addr) (var1 Addr) (var2 Addr) (var3 Int) (var4 Int) (var5 Heap) (var6 Int) (var7 Addr) (var8 Addr) (var9 Addr) (var10 Int) (var11 Int) (var12 Heap)) (or (not (and (and (and (and (and (and (and (and (and (inv_main50 var12 var11 var10 var9 var8 var7) (= var6 (h (getnode (readHeap var12 var7))))) (= var0 var7)) (= var1 var8)) (= var2 var9)) (= var3 var10)) (= var4 var11)) (= var5 var12)) (is-O_node (readHeap var12 var7))) (= var6 1))) (inv_main54 var5 (+ var4 1) var3 var2 var1 var0))))
(assert (forall ((var0 Addr) (var1 Addr) (var2 Addr) (var3 Int) (var4 Int) (var5 Heap)) (or (not (and (inv_main14 var5 var4 var3 var2 var1 var0) (not (<= 0 (+ (+ (* (- 1) var3) 10) (* (- 1) 1)))))) (inv_main30 var5 var4 var3 var2 var1 var0))))
(assert (forall ((var0 Int) (var1 Addr) (var2 Addr) (var3 Addr) (var4 Int) (var5 Int) (var6 Heap)) (or (not (and (and (inv_main14 var6 var5 var4 var3 var2 var1) (<= 0 (+ (+ (* (- 1) var4) 10) (* (- 1) 1)))) (= var0 0))) (inv_main30 var6 var5 var4 var3 var2 var1))))
(assert (forall ((var0 Int) (var1 Addr) (var2 Addr) (var3 Addr) (var4 Int) (var5 Int) (var6 Heap)) (or (not (and (and (inv_main13 var6 var5 var4 var3 var2 var1) (<= 0 (+ (+ (* (- 1) var5) 10) (* (- 1) 1)))) (not (= var0 0)))) (inv_main18 var6 (+ var5 1) var4 var3 var2 var1))))
(assert (forall ((var0 Addr) (var1 Addr) (var2 Addr) (var3 Int) (var4 Int) (var5 Heap) (var6 Int) (var7 Addr) (var8 Addr) (var9 Addr) (var10 Int) (var11 Int) (var12 Heap)) (or (not (and (and (and (and (and (and (and (and (and (inv_main51 var12 var11 var10 var9 var8 var7) (= var6 (h (getnode (readHeap var12 var7))))) (= var0 var7)) (= var1 var8)) (= var2 var9)) (= var3 var10)) (= var4 var11)) (= var5 var12)) (is-O_node (readHeap var12 var7))) (not (= var6 2)))) (inv_main56 var5 var4 var3 var2 var1 var0))))
(assert (forall ((var0 Addr) (var1 Addr) (var2 Addr) (var3 Heap) (var4 Int) (var5 Int) (var6 Int) (var7 Addr) (var8 Addr) (var9 Addr) (var10 Int) (var11 Int) (var12 Heap)) (or (not (and (and (and (and (and (and (and (and (and (and (inv_main56 var12 var11 var10 var9 var8 var7) (= var6 (h (getnode (readHeap var12 var7))))) (= var0 var7)) (= var1 var8)) (= var2 var9)) (= var4 var10)) (= var5 var11)) (= var3 var12)) (is-O_node (readHeap var12 var7))) (not (<= 0 (+ (+ (* (- 1) (+ var5 var4)) 20) (* (- 1) 1))))) (= var6 3))) (inv_main66 var3 var5 var4 var2 var1 var2))))
(assert (forall ((var0 Addr) (var1 Addr) (var2 Addr) (var3 Int) (var4 Int) (var5 Heap) (var6 Addr) (var7 Addr) (var8 Addr) (var9 Addr) (var10 Int) (var11 Int) (var12 Heap) (var13 Addr) (var14 Addr) (var15 Addr) (var16 Int) (var17 Int) (var18 Heap)) (or (not (and (and (and (and (and (and (and (and (and (and (and (and (and (and (inv_main68 var18 var17 var16 var15 var14 var13) (= var0 var7)) (= var1 var6)) (= var2 var9)) (= var3 var10)) (= var4 var11)) (= var5 (writeHeap var12 var7 defObj))) (= var6 (n (getnode (readHeap var18 var13))))) (= var7 var13)) (= var8 var14)) (= var9 var15)) (= var10 var16)) (= var11 var17)) (= var12 var18)) (is-O_node (readHeap var18 var13)))) (inv_main66 var5 var4 var3 var2 var1 var1))))
(assert (forall ((var0 Addr) (var1 Addr) (var2 Addr) (var3 Int) (var4 Int) (var5 Heap)) (or (not (and (and (inv_main38 var5 var4 var3 var2 var1 var0) (is-O_node (readHeap var5 var0))) (is-O_node (readHeap var5 var0)))) (inv_main44 (writeHeap var5 var0 (O_node (node (h (getnode (readHeap var5 var0))) var1))) var4 var3 var2 var1 var0))))
(assert (forall ((var0 Addr) (var1 Addr) (var2 Addr) (var3 Addr) (var4 Addr) (var5 Addr) (var6 Int) (var7 Int) (var8 Int) (var9 Int) (var10 node) (var11 Heap) (var12 Heap) (var13 Addr) (var14 Addr) (var15 Addr) (var16 Addr) (var17 Int) (var18 Int) (var19 Heap)) (or (not (and (and (and (and (and (and (and (and (and (and (and (and (and (and (and (and (inv_main18 var19 var18 var17 var16 var15 var14) (= var0 var14)) (= var2 var15)) (= var4 var16)) (= var6 var17)) (= var8 var18)) (= var11 (writeHeap var19 var14 (O_node (node 1 (n (getnode (readHeap var19 var14)))))))) (is-O_node (readHeap var19 var14))) (is-O_node (readHeap var19 var14))) (= var13 (newAddr (allocHeap var11 (O_node var10))))) (= var1 var0)) (= var3 var2)) (= var5 var4)) (= var7 var6)) (= var9 var8)) (= var12 (newHeap (allocHeap var11 (O_node var10))))) (not (= var13 nullAddr)))) (inv_main22 var12 var9 var7 var5 var13 var1))))
(assert (forall ((var0 Int) (var1 Addr) (var2 Int) (var3 Int) (var4 Heap)) (or (not (inv_main9 var4 var3 var2 var1 var0)) (inv_main9 var4 var3 var2 var1 var0))))
(assert (forall ((var0 Int) (var1 Int) (var2 node) (var3 Heap) (var4 Addr) (var5 Int) (var6 Int) (var7 Heap)) (or (not (and (and (and (and (and (inv_main4 var7 var6 var5) (= var4 (newAddr (allocHeap var7 (O_node var2))))) (= var0 var5)) (= var1 var6)) (= var3 (newHeap (allocHeap var7 (O_node var2))))) (= var4 nullAddr))) (inv_main9 var3 var1 var0 var4 1))))
(assert (forall ((var0 Addr) (var1 Addr) (var2 Addr) (var3 Int) (var4 Int) (var5 Heap) (var6 Int) (var7 Addr) (var8 Addr) (var9 Addr) (var10 Int) (var11 Int) (var12 Heap)) (or (not (and (and (and (and (and (and (and (and (and (inv_main50 var12 var11 var10 var9 var8 var7) (= var6 (h (getnode (readHeap var12 var7))))) (= var0 var7)) (= var1 var8)) (= var2 var9)) (= var3 var10)) (= var4 var11)) (= var5 var12)) (is-O_node (readHeap var12 var7))) (not (= var6 1)))) (inv_main51 var5 var4 var3 var2 var1 var0))))
(assert (forall ((var0 Addr) (var1 Addr) (var2 Addr) (var3 Addr) (var4 Int) (var5 Int) (var6 Heap) (var7 Addr) (var8 Addr) (var9 Addr) (var10 Int) (var11 Int) (var12 Heap)) (or (not (and (and (and (and (and (and (and (and (inv_main59 var12 var11 var10 var9 var8 var7) (= var0 (n (getnode (readHeap var12 var7))))) (= var1 var7)) (= var2 var8)) (= var3 var9)) (= var4 var10)) (= var5 var11)) (= var6 var12)) (is-O_node (readHeap var12 var7)))) (inv_main51 var6 var5 var4 var3 var2 var0))))
(assert (forall ((var0 Int) (var1 Addr) (var2 Addr) (var3 Addr) (var4 Int) (var5 Int) (var6 Heap)) (or (not (inv_main25 var6 var5 var4 var3 var2 var1 var0)) (inv_main25 var6 var5 var4 var3 var2 var1 var0))))
(assert (forall ((var0 Addr) (var1 Addr) (var2 Addr) (var3 Addr) (var4 Addr) (var5 Addr) (var6 Int) (var7 Int) (var8 Int) (var9 Int) (var10 node) (var11 Heap) (var12 Heap) (var13 Addr) (var14 Addr) (var15 Addr) (var16 Addr) (var17 Int) (var18 Int) (var19 Heap)) (or (not (and (and (and (and (and (and (and (and (and (and (and (and (and (and (and (and (inv_main18 var19 var18 var17 var16 var15 var14) (= var0 var14)) (= var2 var15)) (= var4 var16)) (= var6 var17)) (= var8 var18)) (= var11 (writeHeap var19 var14 (O_node (node 1 (n (getnode (readHeap var19 var14)))))))) (is-O_node (readHeap var19 var14))) (is-O_node (readHeap var19 var14))) (= var13 (newAddr (allocHeap var11 (O_node var10))))) (= var1 var0)) (= var3 var2)) (= var5 var4)) (= var7 var6)) (= var9 var8)) (= var12 (newHeap (allocHeap var11 (O_node var10))))) (= var13 nullAddr))) (inv_main25 var12 var9 var7 var5 var13 var1 1))))
(assert (forall ((var0 Addr) (var1 Addr) (var2 Addr) (var3 Int) (var4 Int) (var5 Heap) (var6 Int) (var7 Addr) (var8 Addr) (var9 Addr) (var10 Int) (var11 Int) (var12 Heap)) (or (not (and (and (and (and (and (and (and (and (and (inv_main51 var12 var11 var10 var9 var8 var7) (= var6 (h (getnode (readHeap var12 var7))))) (= var0 var7)) (= var1 var8)) (= var2 var9)) (= var3 var10)) (= var4 var11)) (= var5 var12)) (is-O_node (readHeap var12 var7))) (= var6 2))) (inv_main59 var5 var4 (+ var3 1) var2 var1 var0))))
(assert (forall ((var0 Addr) (var1 Addr) (var2 Addr) (var3 Addr) (var4 Int) (var5 Int) (var6 Heap) (var7 Addr) (var8 Addr) (var9 Addr) (var10 Int) (var11 Int) (var12 Heap)) (or (not (and (and (and (and (and (and (and (and (inv_main54 var12 var11 var10 var9 var8 var7) (= var0 (n (getnode (readHeap var12 var7))))) (= var1 var7)) (= var2 var8)) (= var3 var9)) (= var4 var10)) (= var5 var11)) (= var6 var12)) (is-O_node (readHeap var12 var7)))) (inv_main50 var6 var5 var4 var3 var2 var0))))
(assert (forall ((var0 Addr) (var1 Addr) (var2 Addr) (var3 Int) (var4 Int) (var5 Heap) (var6 Addr) (var7 Addr) (var8 Addr) (var9 Int) (var10 Int) (var11 Heap)) (or (not (and (and (and (and (and (and (and (and (inv_main46 var11 var10 var9 var8 var7 var6) (= var0 var6)) (= var1 var7)) (= var2 var8)) (= var3 var9)) (= var4 var10)) (= var5 (writeHeap var11 var6 (O_node (node (h (getnode (readHeap var11 var6))) 0))))) (is-O_node (readHeap var11 var6))) (is-O_node (readHeap var11 var6)))) (inv_main50 var5 0 0 var2 var1 var2))))
(assert (forall ((var0 Addr) (var1 Addr) (var2 Addr) (var3 Int) (var4 Int) (var5 Heap)) (or (not (and (and (inv_main22 var5 var4 var3 var2 var1 var0) (is-O_node (readHeap var5 var0))) (is-O_node (readHeap var5 var0)))) (inv_main28 (writeHeap var5 var0 (O_node (node (h (getnode (readHeap var5 var0))) var1))) var4 var3 var2 var1 var0))))
(assert (forall ((var0 Int) (var1 Addr) (var2 Addr) (var3 Addr) (var4 Int) (var5 Int) (var6 Heap)) (or (not (inv_main41 var6 var5 var4 var3 var2 var1 var0)) (inv_main41 var6 var5 var4 var3 var2 var1 var0))))
(assert (forall ((var0 Addr) (var1 Addr) (var2 Addr) (var3 Addr) (var4 Addr) (var5 Addr) (var6 Int) (var7 Int) (var8 Int) (var9 Int) (var10 node) (var11 Heap) (var12 Heap) (var13 Addr) (var14 Addr) (var15 Addr) (var16 Addr) (var17 Int) (var18 Int) (var19 Heap)) (or (not (and (and (and (and (and (and (and (and (and (and (and (and (and (and (and (and (inv_main34 var19 var18 var17 var16 var15 var14) (= var0 var14)) (= var2 var15)) (= var4 var16)) (= var6 var17)) (= var8 var18)) (= var11 (writeHeap var19 var14 (O_node (node 2 (n (getnode (readHeap var19 var14)))))))) (is-O_node (readHeap var19 var14))) (is-O_node (readHeap var19 var14))) (= var13 (newAddr (allocHeap var11 (O_node var10))))) (= var1 var0)) (= var3 var2)) (= var5 var4)) (= var7 var6)) (= var9 var8)) (= var12 (newHeap (allocHeap var11 (O_node var10))))) (= var13 nullAddr))) (inv_main41 var12 var9 var7 var5 var13 var1 1))))
(assert (forall ((var0 Addr) (var1 Addr) (var2 Addr) (var3 Addr) (var4 Addr) (var5 Addr) (var6 Int) (var7 Int) (var8 Int) (var9 Int) (var10 node) (var11 Heap) (var12 Heap) (var13 Addr) (var14 Addr) (var15 Addr) (var16 Addr) (var17 Int) (var18 Int) (var19 Heap)) (or (not (and (and (and (and (and (and (and (and (and (and (and (and (and (and (and (and (inv_main34 var19 var18 var17 var16 var15 var14) (= var0 var14)) (= var2 var15)) (= var4 var16)) (= var6 var17)) (= var8 var18)) (= var11 (writeHeap var19 var14 (O_node (node 2 (n (getnode (readHeap var19 var14)))))))) (is-O_node (readHeap var19 var14))) (is-O_node (readHeap var19 var14))) (= var13 (newAddr (allocHeap var11 (O_node var10))))) (= var1 var0)) (= var3 var2)) (= var5 var4)) (= var7 var6)) (= var9 var8)) (= var12 (newHeap (allocHeap var11 (O_node var10))))) (not (= var13 nullAddr)))) (inv_main38 var12 var9 var7 var5 var13 var1))))
(assert (forall ((var0 Int) (var1 Addr) (var2 Addr) (var3 Addr) (var4 Int) (var5 Int) (var6 Heap)) (or (not (and (and (inv_main14 var6 var5 var4 var3 var2 var1) (<= 0 (+ (+ (* (- 1) var4) 10) (* (- 1) 1)))) (not (= var0 0)))) (inv_main34 var6 var5 (+ var4 1) var3 var2 var1))))
(assert (forall ((var0 Addr) (var1 Addr) (var2 Addr) (var3 Addr) (var4 Int) (var5 Int) (var6 Heap) (var7 Addr) (var8 Addr) (var9 Addr) (var10 Int) (var11 Int) (var12 Heap)) (or (not (and (and (and (and (and (and (and (and (inv_main44 var12 var11 var10 var9 var8 var7) (= var0 (n (getnode (readHeap var12 var7))))) (= var1 var7)) (= var2 var8)) (= var3 var9)) (= var4 var10)) (= var5 var11)) (= var6 var12)) (is-O_node (readHeap var12 var7)))) (inv_main14 var6 var5 var4 var3 var2 var0))))
(assert (forall ((var0 Addr) (var1 Addr) (var2 Addr) (var3 Int) (var4 Int) (var5 Heap)) (or (not (and (inv_main13 var5 var4 var3 var2 var1 var0) (not (<= 0 (+ (+ (* (- 1) var4) 10) (* (- 1) 1)))))) (inv_main14 var5 var4 var3 var2 var1 var0))))
(assert (forall ((var0 Int) (var1 Addr) (var2 Addr) (var3 Addr) (var4 Int) (var5 Int) (var6 Heap)) (or (not (and (and (inv_main13 var6 var5 var4 var3 var2 var1) (<= 0 (+ (+ (* (- 1) var5) 10) (* (- 1) 1)))) (= var0 0))) (inv_main14 var6 var5 var4 var3 var2 var1))))
(assert (forall ((var0 Addr) (var1 Addr) (var2 Addr) (var3 Addr) (var4 Int) (var5 Int) (var6 Heap) (var7 Addr) (var8 Addr) (var9 Addr) (var10 Int) (var11 Int) (var12 Heap)) (or (not (and (and (and (and (and (and (and (and (inv_main28 var12 var11 var10 var9 var8 var7) (= var0 (n (getnode (readHeap var12 var7))))) (= var1 var7)) (= var2 var8)) (= var3 var9)) (= var4 var10)) (= var5 var11)) (= var6 var12)) (is-O_node (readHeap var12 var7)))) (inv_main13 var6 var5 var4 var3 var2 var0))))
(assert (forall ((var0 Addr) (var1 Int) (var2 Int) (var3 node) (var4 Heap) (var5 Addr) (var6 Int) (var7 Int) (var8 Heap)) (or (not (and (and (and (and (and (inv_main4 var8 var7 var6) (= var5 (newAddr (allocHeap var8 (O_node var3))))) (= var1 var6)) (= var2 var7)) (= var4 (newHeap (allocHeap var8 (O_node var3))))) (not (= var5 nullAddr)))) (inv_main13 var4 var2 var1 var5 var0 var5))))
(assert (forall ((var0 Addr) (var1 Addr) (var2 Addr) (var3 Int) (var4 Int) (var5 Heap)) (or (not (and (and (inv_main30 var5 var4 var3 var2 var1 var0) (is-O_node (readHeap var5 var0))) (is-O_node (readHeap var5 var0)))) (inv_main46 (writeHeap var5 var0 (O_node (node 3 (n (getnode (readHeap var5 var0)))))) var4 var3 var2 var1 var0))))
(assert (forall ((var0 Addr) (var1 Addr) (var2 Addr) (var3 Int) (var4 Int) (var5 Heap) (var6 Addr) (var7 Addr) (var8 Addr) (var9 Addr) (var10 Int) (var11 Int) (var12 Heap)) (or (not (and (and (and (and (and (and (and (and (and (inv_main66 var12 var11 var10 var9 var8 var7) (= var6 (n (getnode (readHeap var12 var7))))) (= var0 var7)) (= var1 var8)) (= var2 var9)) (= var3 var10)) (= var4 var11)) (= var5 var12)) (is-O_node (readHeap var12 var7))) (not (= var6 nullAddr)))) (inv_main68 var5 var4 var3 var2 var1 var0))))
(assert (forall ((var0 Addr) (var1 Addr) (var2 Addr) (var3 Int) (var4 Int) (var5 Heap)) (not (and (inv_main18 var5 var4 var3 var2 var1 var0) (not (is-O_node (readHeap var5 var0)))))))
(assert (forall ((var0 Addr) (var1 Addr) (var2 Addr) (var3 Int) (var4 Int) (var5 Heap)) (not (and (and (inv_main18 var5 var4 var3 var2 var1 var0) (not (is-O_node (readHeap var5 var0)))) (is-O_node (readHeap var5 var0))))))
(assert (forall ((var0 Addr) (var1 Addr) (var2 Addr) (var3 Int) (var4 Int) (var5 Heap)) (not (and (inv_main22 var5 var4 var3 var2 var1 var0) (not (is-O_node (readHeap var5 var0)))))))
(assert (forall ((var0 Addr) (var1 Addr) (var2 Addr) (var3 Int) (var4 Int) (var5 Heap)) (not (and (and (inv_main22 var5 var4 var3 var2 var1 var0) (not (is-O_node (readHeap var5 var0)))) (is-O_node (readHeap var5 var0))))))
(assert (forall ((var0 Addr) (var1 Addr) (var2 Addr) (var3 Int) (var4 Int) (var5 Heap)) (not (and (inv_main28 var5 var4 var3 var2 var1 var0) (not (is-O_node (readHeap var5 var0)))))))
(assert (forall ((var0 Addr) (var1 Addr) (var2 Addr) (var3 Int) (var4 Int) (var5 Heap)) (not (and (inv_main34 var5 var4 var3 var2 var1 var0) (not (is-O_node (readHeap var5 var0)))))))
(assert (forall ((var0 Addr) (var1 Addr) (var2 Addr) (var3 Int) (var4 Int) (var5 Heap)) (not (and (and (inv_main34 var5 var4 var3 var2 var1 var0) (not (is-O_node (readHeap var5 var0)))) (is-O_node (readHeap var5 var0))))))
(assert (forall ((var0 Addr) (var1 Addr) (var2 Addr) (var3 Int) (var4 Int) (var5 Heap)) (not (and (inv_main38 var5 var4 var3 var2 var1 var0) (not (is-O_node (readHeap var5 var0)))))))
(assert (forall ((var0 Addr) (var1 Addr) (var2 Addr) (var3 Int) (var4 Int) (var5 Heap)) (not (and (and (inv_main38 var5 var4 var3 var2 var1 var0) (not (is-O_node (readHeap var5 var0)))) (is-O_node (readHeap var5 var0))))))
(assert (forall ((var0 Addr) (var1 Addr) (var2 Addr) (var3 Int) (var4 Int) (var5 Heap)) (not (and (inv_main44 var5 var4 var3 var2 var1 var0) (not (is-O_node (readHeap var5 var0)))))))
(assert (forall ((var0 Addr) (var1 Addr) (var2 Addr) (var3 Int) (var4 Int) (var5 Heap)) (not (and (inv_main30 var5 var4 var3 var2 var1 var0) (not (is-O_node (readHeap var5 var0)))))))
(assert (forall ((var0 Addr) (var1 Addr) (var2 Addr) (var3 Int) (var4 Int) (var5 Heap)) (not (and (and (inv_main30 var5 var4 var3 var2 var1 var0) (not (is-O_node (readHeap var5 var0)))) (is-O_node (readHeap var5 var0))))))
(assert (forall ((var0 Addr) (var1 Addr) (var2 Addr) (var3 Int) (var4 Int) (var5 Heap)) (not (and (inv_main46 var5 var4 var3 var2 var1 var0) (not (is-O_node (readHeap var5 var0)))))))
(assert (forall ((var0 Addr) (var1 Addr) (var2 Addr) (var3 Int) (var4 Int) (var5 Heap)) (not (and (and (inv_main46 var5 var4 var3 var2 var1 var0) (not (is-O_node (readHeap var5 var0)))) (is-O_node (readHeap var5 var0))))))
(assert (forall ((var0 Addr) (var1 Addr) (var2 Addr) (var3 Int) (var4 Int) (var5 Heap)) (not (and (inv_main50 var5 var4 var3 var2 var1 var0) (not (is-O_node (readHeap var5 var0)))))))
(assert (forall ((var0 Addr) (var1 Addr) (var2 Addr) (var3 Int) (var4 Int) (var5 Heap)) (not (and (inv_main54 var5 var4 var3 var2 var1 var0) (not (is-O_node (readHeap var5 var0)))))))
(assert (forall ((var0 Addr) (var1 Addr) (var2 Addr) (var3 Int) (var4 Int) (var5 Heap)) (not (and (inv_main51 var5 var4 var3 var2 var1 var0) (not (is-O_node (readHeap var5 var0)))))))
(assert (forall ((var0 Addr) (var1 Addr) (var2 Addr) (var3 Int) (var4 Int) (var5 Heap)) (not (and (inv_main59 var5 var4 var3 var2 var1 var0) (not (is-O_node (readHeap var5 var0)))))))
(assert (forall ((var0 Addr) (var1 Addr) (var2 Addr) (var3 Int) (var4 Int) (var5 Heap)) (not (and (inv_main56 var5 var4 var3 var2 var1 var0) (not (is-O_node (readHeap var5 var0)))))))
(assert (forall ((var0 Addr) (var1 Addr) (var2 Addr) (var3 Int) (var4 Int) (var5 Heap)) (not (inv_main62 var5 var4 var3 var2 var1 var0))))
(assert (forall ((var0 Addr) (var1 Addr) (var2 Addr) (var3 Int) (var4 Int) (var5 Heap)) (not (and (inv_main66 var5 var4 var3 var2 var1 var0) (not (is-O_node (readHeap var5 var0)))))))
(assert (forall ((var0 Addr) (var1 Addr) (var2 Addr) (var3 Int) (var4 Int) (var5 Heap)) (not (and (inv_main68 var5 var4 var3 var2 var1 var0) (not (is-O_node (readHeap var5 var0)))))))
(check-sat)
